c Random generated cnf formula, satisfiable: false
p cnf 10 50
8 2 9 0
1 3 10 0
10 -7 -4 0
-3 1 9 0
-6 7 10 0
-1 10 3 0
-6 -2 -10 0
-9 -4 -7 0
-2 -3 -9 0
-8 3 -4 0
2 6 -7 0
1 4 6 0
-3 -7 8 0
5 9 4 0
-1 5 9 0
-7 10 4 0
3 8 9 0
4 7 -5 0
1 -7 5 0
-6 1 -8 0
4 -9 1 0
3 2 -5 0
1 -9 -3 0
7 4 -6 0
-9 7 8 0
8 -9 3 0
2 -10 -4 0
-5 7 -6 0
-6 7 10 0
3 1 7 0
9 6 -7 0
10 -3 -6 0
5 4 6 0
-10 3 -1 0
-2 7 6 0
10 6 -4 0
-8 10 -6 0
-3 -7 -8 0
8 -1 -9 0
1 -2 8 0
10 -3 9 0
-9 4 -3 0
3 -2 -8 0
7 -8 4 0
7 -6 -3 0
-4 -2 -10 0
10 -9 -8 0
-3 7 -10 0
-3 -7 -2 0
10 -6 2 0
